c File: flat30_3_0.col
c
c SOURCE: Joseph Culberson (joe@cs.ualberta.ca)
c DESCRIPTION: Quasi-random coloring problem
c              generated with flatness = 0
c                             probability = 0.200
c                             known coloring = 3
c                             random seed = 238777
c              Creation Date:  Fri Nov 29 22:02:20 1996
c Maximum degree = 6 Minimum degree = 2
c
c cnf created by edge2cnf
p cnf 90 300
-1 -2 0
-1 -3 0
-2 -3 0
1 2 3 0
-4 -5 0
-4 -6 0
-5 -6 0
4 5 6 0
-7 -8 0
-7 -9 0
-8 -9 0
7 8 9 0
-10 -11 0
-10 -12 0
-11 -12 0
10 11 12 0
-13 -14 0
-13 -15 0
-14 -15 0
13 14 15 0
-16 -17 0
-16 -18 0
-17 -18 0
16 17 18 0
-19 -20 0
-19 -21 0
-20 -21 0
19 20 21 0
-22 -23 0
-22 -24 0
-23 -24 0
22 23 24 0
-25 -26 0
-25 -27 0
-26 -27 0
25 26 27 0
-28 -29 0
-28 -30 0
-29 -30 0
28 29 30 0
-31 -32 0
-31 -33 0
-32 -33 0
31 32 33 0
-34 -35 0
-34 -36 0
-35 -36 0
34 35 36 0
-37 -38 0
-37 -39 0
-38 -39 0
37 38 39 0
-40 -41 0
-40 -42 0
-41 -42 0
40 41 42 0
-43 -44 0
-43 -45 0
-44 -45 0
43 44 45 0
-46 -47 0
-46 -48 0
-47 -48 0
46 47 48 0
-49 -50 0
-49 -51 0
-50 -51 0
49 50 51 0
-52 -53 0
-52 -54 0
-53 -54 0
52 53 54 0
-55 -56 0
-55 -57 0
-56 -57 0
55 56 57 0
-58 -59 0
-58 -60 0
-59 -60 0
58 59 60 0
-61 -62 0
-61 -63 0
-62 -63 0
61 62 63 0
-64 -65 0
-64 -66 0
-65 -66 0
64 65 66 0
-67 -68 0
-67 -69 0
-68 -69 0
67 68 69 0
-70 -71 0
-70 -72 0
-71 -72 0
70 71 72 0
-73 -74 0
-73 -75 0
-74 -75 0
73 74 75 0
-76 -77 0
-76 -78 0
-77 -78 0
76 77 78 0
-79 -80 0
-79 -81 0
-80 -81 0
79 80 81 0
-82 -83 0
-82 -84 0
-83 -84 0
82 83 84 0
-85 -86 0
-85 -87 0
-86 -87 0
85 86 87 0
-88 -89 0
-88 -90 0
-89 -90 0
88 89 90 0
-37 -1 0
-38 -2 0
-39 -3 0
-85 -1 0
-86 -2 0
-87 -3 0
-37 -4 0
-38 -5 0
-39 -6 0
-46 -4 0
-47 -5 0
-48 -6 0
-58 -4 0
-59 -5 0
-60 -6 0
-64 -4 0
-65 -5 0
-66 -6 0
-73 -4 0
-74 -5 0
-75 -6 0
-88 -4 0
-89 -5 0
-90 -6 0
-31 -7 0
-32 -8 0
-33 -9 0
-40 -7 0
-41 -8 0
-42 -9 0
-55 -7 0
-56 -8 0
-57 -9 0
-61 -7 0
-62 -8 0
-63 -9 0
-70 -7 0
-71 -8 0
-72 -9 0
-76 -7 0
-77 -8 0
-78 -9 0
-55 -10 0
-56 -11 0
-57 -12 0
-88 -10 0
-89 -11 0
-90 -12 0
-31 -13 0
-32 -14 0
-33 -15 0
-49 -13 0
-50 -14 0
-51 -15 0
-52 -13 0
-53 -14 0
-54 -15 0
-82 -13 0
-83 -14 0
-84 -15 0
-31 -16 0
-32 -17 0
-33 -18 0
-37 -16 0
-38 -17 0
-39 -18 0
-40 -16 0
-41 -17 0
-42 -18 0
-64 -16 0
-65 -17 0
-66 -18 0
-67 -16 0
-68 -17 0
-69 -18 0
-88 -16 0
-89 -17 0
-90 -18 0
-40 -19 0
-41 -20 0
-42 -21 0
-73 -19 0
-74 -20 0
-75 -21 0
-55 -22 0
-56 -23 0
-57 -24 0
-67 -22 0
-68 -23 0
-69 -24 0
-70 -22 0
-71 -23 0
-72 -24 0
-79 -22 0
-80 -23 0
-81 -24 0
-46 -25 0
-47 -26 0
-48 -27 0
-49 -25 0
-50 -26 0
-51 -27 0
-73 -25 0
-74 -26 0
-75 -27 0
-43 -28 0
-44 -29 0
-45 -30 0
-52 -28 0
-53 -29 0
-54 -30 0
-64 -28 0
-65 -29 0
-66 -30 0
-70 -28 0
-71 -29 0
-72 -30 0
-85 -28 0
-86 -29 0
-87 -30 0
-61 -31 0
-62 -32 0
-63 -33 0
-73 -31 0
-74 -32 0
-75 -33 0
-79 -31 0
-80 -32 0
-81 -33 0
-67 -34 0
-68 -35 0
-69 -36 0
-73 -34 0
-74 -35 0
-75 -36 0
-88 -34 0
-89 -35 0
-90 -36 0
-61 -37 0
-62 -38 0
-63 -39 0
-67 -37 0
-68 -38 0
-69 -39 0
-70 -37 0
-71 -38 0
-72 -39 0
-67 -40 0
-68 -41 0
-69 -42 0
-76 -43 0
-77 -44 0
-78 -45 0
-61 -49 0
-62 -50 0
-63 -51 0
-79 -49 0
-80 -50 0
-81 -51 0
-73 -52 0
-74 -53 0
-75 -54 0
-79 -52 0
-80 -53 0
-81 -54 0
-88 -52 0
-89 -53 0
-90 -54 0
-70 -55 0
-71 -56 0
-72 -57 0
-76 -55 0
-77 -56 0
-78 -57 0
-82 -55 0
-83 -56 0
-84 -57 0
-76 -58 0
-77 -59 0
-78 -60 0
